instances/in_50_25_9_4.dzn
n = 50;
k = 25;
h = 9;
tiles = array2d(1..n, 1..2,
[ 12,12
, 24,12
, 24,18
, 6,11
, 25,10
, 9,23
, 10,21
, 6,5
, 15,1
, 25,5
, 1,3
, 3,10
, 11,2
, 17,24
, 7,11
, 16,4
, 7,9
, 9,22
, 12,20
, 1,18
, 14,1
, 21,15
, 23,22
, 5,15
, 13,6
, 14,14
, 23,25
, 12,5
, 6,8
, 1,19
, 2,18
, 18,17
, 4,16
, 5,24
, 10,17
, 16,13
, 18,16
, 7,24
, 10,23
, 10,10
, 18,20
, 25,2
, 20,14
, 12,22
, 17,6
, 24,7
, 23,6
, 12,2
, 8,14
, 13,19
]);