instances/in_50_25_9_4.lp
#const n = 50.
#const k = 25.
#const h = 9.
tile(1,12,12).
tile(2,24,12).
tile(3,24,18).
tile(4,6,11).
tile(5,25,10).
tile(6,9,23).
tile(7,10,21).
tile(8,6,5).
tile(9,15,1).
tile(10,25,5).
tile(11,1,3).
tile(12,3,10).
tile(13,11,2).
tile(14,17,24).
tile(15,7,11).
tile(16,16,4).
tile(17,7,9).
tile(18,9,22).
tile(19,12,20).
tile(20,1,18).
tile(21,14,1).
tile(22,21,15).
tile(23,23,22).
tile(24,5,15).
tile(25,13,6).
tile(26,14,14).
tile(27,23,25).
tile(28,12,5).
tile(29,6,8).
tile(30,1,19).
tile(31,2,18).
tile(32,18,17).
tile(33,4,16).
tile(34,5,24).
tile(35,10,17).
tile(36,16,13).
tile(37,18,16).
tile(38,7,24).
tile(39,10,23).
tile(40,10,10).
tile(41,18,20).
tile(42,25,2).
tile(43,20,14).
tile(44,12,22).
tile(45,17,6).
tile(46,24,7).
tile(47,23,6).
tile(48,12,2).
tile(49,8,14).
tile(50,13,19).
